(set-info :Origin "This instance was generated by: BanditFuzz-- an RL fuzzer for SMT solvers" )
(set-info :Author "Joe Scott, Fed Mora, Vijay Ganesh" )
(set-info :Contact "Joe Scott, joseph.scott@uwaterloo.ca")
(set-logic QF_BV)
(declare-const bool_0 Bool)
(declare-const bool_1 Bool)
(declare-const bool_2 Bool)
(declare-const bool_3 Bool)
(declare-const bool_4 Bool)
(declare-const bv_0 (_ BitVec 32))
(declare-const bv_1 (_ BitVec 32))
(declare-const bv_2 (_ BitVec 32))
(declare-const bv_3 (_ BitVec 32))
(declare-const bv_4 (_ BitVec 32))
(assert (not (bvsle (bvmul #x0d25a62b  #xbb5d2c01 ) (bvnor bv_0 #x4968a530 ))))
(assert (bvsge (bvadd (bvxor #x698f879b  #x50fa8944 ) (bvsmod #xe807f6d1  bv_4)) (bvsdiv (bvmul #x7a9d2c67  bv_1) (bvsrem bv_4 #x606edd3f ))))
(assert (bvugt (bvxnor (bvor #x0feb01c7  #x5fac9327 ) (bvsrem #x36a4bf44  bv_3)) (bvlshr (bvashr #x4c8ddf6f  bv_4) (bvurem #x64d12a4d  #xea657bb6 ))))
(assert (xor (=> (=> bool_0 false) (bvule #x97ce9a60  #xc8849541 )) (bvult (bvshl bv_4 bv_1) (bvsrem bv_2 bv_2))))
(assert (or (bvsle (bvudiv #x9d72afb0  #x06209fc6 ) (bvxor #x080168ee  bv_3)) (=> (bvule bv_2 #x8831a9f9 ) (bvsgt #xb0b7f018  #x13b1ddbe ))))
(check-sat)
(exit)
